files/upTests/tupley32-7-2/0001.eprime.solution
language ESSENCE' 1.0
$ minion Nodes: 1
$ minion TotalTime: 0.000416
$ Savile Row TotalTime: 0.172
letting pain_tuple1 be [2]
letting pain_tuple3 be [14]
letting pain_tuple4_Explicit_tuple1 be [[15]]
letting pain_tuple4_Explicit_tuple2 be [[16]]
letting pain_tuple2_tuple1_tuple2 be [11]
letting pain_tuple2_tuple1_tuple1 be [10]
letting pain_tuple2_tuple2 be [12]
